#basic configrations
dimension 3
units metal
atom_style atomic
atom_modify map array
boundary p f p
#read data from data file
shell cd /home/zyy/ramdisk
read_data test.data    
##pair settings for the Al
pair_style eam/alloy
pair_coeff * * Al-2009.eam.alloy Al
timestep 0.001
neighbor 0.3 bin
neigh_modify every 5 delay 0 check yes

##nvt-fixings for the simulation

fix t all nve
#ix xwall all wall/reflect xlo EDGE xhi EDGE
fix ywall all wall/reflect ylo EDGE yhi EDGE
#minimize 1.0e-4 1.0e-6 100 1000
##energy computations settings
compute peatom all pe/atom
compute keatom all ke/atom

thermo 100

##----------------------------------------------

unfix t 
compute 1 all stress/atom NULL
#compute v all voronoi/atom
variable stressx atom c_1[1]/10000
variable stressy atom c_1[2]/10000
variable stressz atom c_1[3]/10000
dump a all custom 1000 dump0.atom id type x y z c_keatom c_peatom v_stressx v_stressy v_stressz
##----------------------------------------------
#region fixs block INF INF INF INF INF -225 units box
#region twotemp block INF INF INF INF -225 INF units box
#group twotemp region twotemp
#group fixs region fixs
#fix sf fixs setforce 0 0 0
#v#elocity fixs set 0 0 0 sum no
##----------------------------------------------
fix tt all nve
#write_data initiate-state.data
## out put settings
compute binchunk all chunk/atom bin/2d x lower 0.005 y lower 0.0025 units reduced
compute ctc all temp/chunk binchunk temp
fix bi all ave/chunk 100 1 100 binchunk density/number  file density-profile.txt  ave running overwrite
fix ti all ave/chunk 100 1 100 binchunk temp file  lattice-temperature-profile.txt ave running overwrite

thermo_style custom step temp pxx pyy ke pe #f_twotemp[1] f_twotemp[2]
log none
shell cd /media/zyy/data/2023-11-3-cupy/step1
run 1
shell cd /home/zyy/ramdisk
write_data relaxed-500ps.data    
run 0
